NAME : prob20a.5698.tour
COMMENT : Cost = 0_5698
COMMENT : Found by LKH [Keld Helsgaun] Sun Sep 17 01:05:33 2017
TYPE : TOUR
DIMENSION : 41
TOUR_SECTION
1
29
27
37
26
25
24
41
23
5
6
21
35
9
31
34
38
28
39
19
30
40
8
36
11
33
32
15
13
18
22
12
2
4
17
3
16
14
10
7
20
-1
EOF
